 &control
    calculation='scf'
    restart_mode='from_scratch',
    pseudo_dir = './',
    outdir='data'
    prefix='AlSiAl_wire'
 /
 &system
    ibrav = 0,
    nat= 7,
    ntyp= 2,
    nspin = 1,
    ecutwfc = 15.0,
    occupations='smearing',
    smearing='fermi-dirac',
    degauss=0.0006333621028712442  ! corresponds 100 K electronic temperature
 /
 &electrons
    conv_thr = 1.0e-8
    mixing_beta = 0.7
 /
ATOMIC_SPECIES
 Al 26.98 Al.upf
 Si 28.09 Si.upf
ATOMIC_POSITIONS bohr  
 Al 0.0 0.0 0.000
 Al 0.0 0.0 5.4118
 Si 0.0 0.0 9.1913 
 Si 0.0 0.0 12.9703
 Si 0.0 0.0 16.7493
 Al 0.0 0.0 20.5288 
 Al 0.0 0.0 25.9406
K_POINTS (automatic)
 1 1 5 0 0 0

CELL_PARAMETERS bohr
18.8973   0.0000   0.0000
 0.0000  18.8973   0.0000
 0.0000   0.0000  31.3524

