&BANDS

  ! The same prefix as in si_scf.in
  prefix = 'silicon'

  ! The same output directory as in si_scf.in
  outdir = './tmp/'

  ! Arbitrary output file name
  filband = 'Si.bands.dat'
/
