&CONTROL

  ! Type of calculation
  calculation = 'bands'

  ! Arbitrary prefix, but keep it the same in follow-up calculations
  prefix = 'silicon'

  ! Calculate forces on atoms
  tprnfor = .true.

  ! Path to pseudopotential directory
  pseudo_dir = '../pseudo'

  ! Path to where to store KS wavefunctions and the charge density
  outdir = './out'

  ! Print all bands
  verbosity = 'high'
/

&SYSTEM

  ! Bravais lattice index (FCC=2)
  ibrav = 2

  ! Lattice constant (in Bohr)
  celldm(1) = 10.263

  ! Number of atoms in the unit cell
  nat = 2

  ! Number of different atomic species
  ntyp = 1

  ! How many bands to include in the calculation
  nbnd = 8

  ! Largest plane-wave kinetic energy in Ry (effectively size of basis set) for w.f.s
  ecutwfc = 18.0

/

&ELECTRONS
/

! List of (arbitrary) symbols of the chemical species, mass and pseudopotential
ATOMIC_SPECIES
Si  28.086  Si.pz-vbc.UPF

! Symbols of the chemical species and positions in crystal coordinates
ATOMIC_POSITIONS alat
Si 0.00 0.00 0.00
Si 0.25 0.25 0.25

! Path in Brillouin zone in fractional reciprocal coordinates
! The last column (k-point weight) is not important for NSCF calculations
K_POINTS crystal
         200
        0.5000000000    0.0000000000    0.0000000000    1.0
        0.4891304348    0.0000000000    0.0000000000    1.0
        0.4782608696    0.0000000000    0.0000000000    1.0
        0.4673913043    0.0000000000    0.0000000000    1.0
        0.4565217391    0.0000000000    0.0000000000    1.0
        0.4456521739    0.0000000000    0.0000000000    1.0
        0.4347826087    0.0000000000    0.0000000000    1.0
        0.4239130435    0.0000000000    0.0000000000    1.0
        0.4130434783    0.0000000000    0.0000000000    1.0
        0.4021739130    0.0000000000    0.0000000000    1.0
        0.3913043478    0.0000000000    0.0000000000    1.0
        0.3804347826    0.0000000000    0.0000000000    1.0
        0.3695652174    0.0000000000    0.0000000000    1.0
        0.3586956522    0.0000000000    0.0000000000    1.0
        0.3478260870    0.0000000000    0.0000000000    1.0
        0.3369565217    0.0000000000    0.0000000000    1.0
        0.3260869565    0.0000000000    0.0000000000    1.0
        0.3152173913    0.0000000000    0.0000000000    1.0
        0.3043478261    0.0000000000    0.0000000000    1.0
        0.2934782609    0.0000000000    0.0000000000    1.0
        0.2826086957    0.0000000000    0.0000000000    1.0
        0.2717391304    0.0000000000    0.0000000000    1.0
        0.2608695652    0.0000000000    0.0000000000    1.0
        0.2500000000    0.0000000000    0.0000000000    1.0
        0.2391304348    0.0000000000    0.0000000000    1.0
        0.2282608696    0.0000000000    0.0000000000    1.0
        0.2173913043    0.0000000000    0.0000000000    1.0
        0.2065217391    0.0000000000    0.0000000000    1.0
        0.1956521739    0.0000000000    0.0000000000    1.0
        0.1847826087    0.0000000000    0.0000000000    1.0
        0.1739130435    0.0000000000    0.0000000000    1.0
        0.1630434783    0.0000000000    0.0000000000    1.0
        0.1521739130    0.0000000000    0.0000000000    1.0
        0.1413043478    0.0000000000    0.0000000000    1.0
        0.1304347826    0.0000000000    0.0000000000    1.0
        0.1195652174    0.0000000000    0.0000000000    1.0
        0.1086956522    0.0000000000    0.0000000000    1.0
        0.0978260870    0.0000000000    0.0000000000    1.0
        0.0869565217    0.0000000000    0.0000000000    1.0
        0.0760869565    0.0000000000    0.0000000000    1.0
        0.0652173913    0.0000000000    0.0000000000    1.0
        0.0543478261    0.0000000000    0.0000000000    1.0
        0.0434782609    0.0000000000    0.0000000000    1.0
        0.0326086957    0.0000000000    0.0000000000    1.0
        0.0217391304    0.0000000000    0.0000000000    1.0
        0.0108695652    0.0000000000    0.0000000000    1.0
        0.0000000000    0.0000000000    0.0000000000    1.0
        0.0000000000    0.0092592593    0.0092592593    1.0
        0.0000000000    0.0185185185    0.0185185185    1.0
        0.0000000000    0.0277777778    0.0277777778    1.0
        0.0000000000    0.0370370370    0.0370370370    1.0
        0.0000000000    0.0462962963    0.0462962963    1.0
        0.0000000000    0.0555555556    0.0555555556    1.0
        0.0000000000    0.0648148148    0.0648148148    1.0
        0.0000000000    0.0740740741    0.0740740741    1.0
        0.0000000000    0.0833333333    0.0833333333    1.0
        0.0000000000    0.0925925926    0.0925925926    1.0
        0.0000000000    0.1018518519    0.1018518519    1.0
        0.0000000000    0.1111111111    0.1111111111    1.0
        0.0000000000    0.1203703704    0.1203703704    1.0
        0.0000000000    0.1296296296    0.1296296296    1.0
        0.0000000000    0.1388888889    0.1388888889    1.0
        0.0000000000    0.1481481481    0.1481481481    1.0
        0.0000000000    0.1574074074    0.1574074074    1.0
        0.0000000000    0.1666666667    0.1666666667    1.0
        0.0000000000    0.1759259259    0.1759259259    1.0
        0.0000000000    0.1851851852    0.1851851852    1.0
        0.0000000000    0.1944444444    0.1944444444    1.0
        0.0000000000    0.2037037037    0.2037037037    1.0
        0.0000000000    0.2129629630    0.2129629630    1.0
        0.0000000000    0.2222222222    0.2222222222    1.0
        0.0000000000    0.2314814815    0.2314814815    1.0
        0.0000000000    0.2407407407    0.2407407407    1.0
        0.0000000000    0.2500000000    0.2500000000    1.0
        0.0000000000    0.2592592593    0.2592592593    1.0
        0.0000000000    0.2685185185    0.2685185185    1.0
        0.0000000000    0.2777777778    0.2777777778    1.0
        0.0000000000    0.2870370370    0.2870370370    1.0
        0.0000000000    0.2962962963    0.2962962963    1.0
        0.0000000000    0.3055555556    0.3055555556    1.0
        0.0000000000    0.3148148148    0.3148148148    1.0
        0.0000000000    0.3240740741    0.3240740741    1.0
        0.0000000000    0.3333333333    0.3333333333    1.0
        0.0000000000    0.3425925926    0.3425925926    1.0
        0.0000000000    0.3518518519    0.3518518519    1.0
        0.0000000000    0.3611111111    0.3611111111    1.0
        0.0000000000    0.3703703704    0.3703703704    1.0
        0.0000000000    0.3796296296    0.3796296296    1.0
        0.0000000000    0.3888888889    0.3888888889    1.0
        0.0000000000    0.3981481481    0.3981481481    1.0
        0.0000000000    0.4074074074    0.4074074074    1.0
        0.0000000000    0.4166666667    0.4166666667    1.0
        0.0000000000    0.4259259259    0.4259259259    1.0
        0.0000000000    0.4351851852    0.4351851852    1.0
        0.0000000000    0.4444444444    0.4444444444    1.0
        0.0000000000    0.4537037037    0.4537037037    1.0
        0.0000000000    0.4629629630    0.4629629630    1.0
        0.0000000000    0.4722222222    0.4722222222    1.0
        0.0000000000    0.4814814815    0.4814814815    1.0
        0.0000000000    0.4907407407    0.4907407407    1.0
        0.0000000000    0.5000000000    0.5000000000    1.0
        0.0089285714    0.5059523810    0.4970238095    1.0
        0.0178571429    0.5119047619    0.4940476190    1.0
        0.0267857143    0.5178571429    0.4910714286    1.0
        0.0357142857    0.5238095238    0.4880952381    1.0
        0.0446428571    0.5297619048    0.4851190476    1.0
        0.0535714286    0.5357142857    0.4821428571    1.0
        0.0625000000    0.5416666667    0.4791666667    1.0
        0.0714285714    0.5476190476    0.4761904762    1.0
        0.0803571429    0.5535714286    0.4732142857    1.0
        0.0892857143    0.5595238095    0.4702380952    1.0
        0.0982142857    0.5654761905    0.4672619048    1.0
        0.1071428571    0.5714285714    0.4642857143    1.0
        0.1160714286    0.5773809524    0.4613095238    1.0
        0.1250000000    0.5833333333    0.4583333333    1.0
        0.1339285714    0.5892857143    0.4553571429    1.0
        0.1428571429    0.5952380952    0.4523809524    1.0
        0.1517857143    0.6011904762    0.4494047619    1.0
        0.1607142857    0.6071428571    0.4464285714    1.0
        0.1696428571    0.6130952381    0.4434523810    1.0
        0.1785714286    0.6190476190    0.4404761905    1.0
        0.1875000000    0.6250000000    0.4375000000    1.0
        0.1964285714    0.6309523810    0.4345238095    1.0
        0.2053571429    0.6369047619    0.4315476190    1.0
        0.2142857143    0.6428571429    0.4285714286    1.0
        0.2232142857    0.6488095238    0.4255952381    1.0
        0.2321428571    0.6547619048    0.4226190476    1.0
        0.2410714286    0.6607142857    0.4196428571    1.0
        0.2500000000    0.6666666667    0.4166666667    1.0
        0.2589285714    0.6726190476    0.4136904762    1.0
        0.2678571429    0.6785714286    0.4107142857    1.0
        0.2767857143    0.6845238095    0.4077380952    1.0
        0.2857142857    0.6904761905    0.4047619048    1.0
        0.2946428571    0.6964285714    0.4017857143    1.0
        0.3035714286    0.7023809524    0.3988095238    1.0
        0.3125000000    0.7083333333    0.3958333333    1.0
        0.3214285714    0.7142857143    0.3928571429    1.0
        0.3303571429    0.7202380952    0.3898809524    1.0
        0.3392857143    0.7261904762    0.3869047619    1.0
        0.3482142857    0.7321428571    0.3839285714    1.0
        0.3571428571    0.7380952381    0.3809523810    1.0
        0.3660714286    0.7440476190    0.3779761905    1.0
        0.3750000000    0.7500000000    0.3750000000    1.0
        0.3684210526    0.7368421053    0.3684210526    1.0
        0.3618421053    0.7236842105    0.3618421053    1.0
        0.3552631579    0.7105263158    0.3552631579    1.0
        0.3486842105    0.6973684211    0.3486842105    1.0
        0.3421052632    0.6842105263    0.3421052632    1.0
        0.3355263158    0.6710526316    0.3355263158    1.0
        0.3289473684    0.6578947368    0.3289473684    1.0
        0.3223684211    0.6447368421    0.3223684211    1.0
        0.3157894737    0.6315789474    0.3157894737    1.0
        0.3092105263    0.6184210526    0.3092105263    1.0
        0.3026315789    0.6052631579    0.3026315789    1.0
        0.2960526316    0.5921052632    0.2960526316    1.0
        0.2894736842    0.5789473684    0.2894736842    1.0
        0.2828947368    0.5657894737    0.2828947368    1.0
        0.2763157895    0.5526315789    0.2763157895    1.0
        0.2697368421    0.5394736842    0.2697368421    1.0
        0.2631578947    0.5263157895    0.2631578947    1.0
        0.2565789474    0.5131578947    0.2565789474    1.0
        0.2500000000    0.5000000000    0.2500000000    1.0
        0.2434210526    0.4868421053    0.2434210526    1.0
        0.2368421053    0.4736842105    0.2368421053    1.0
        0.2302631579    0.4605263158    0.2302631579    1.0
        0.2236842105    0.4473684211    0.2236842105    1.0
        0.2171052632    0.4342105263    0.2171052632    1.0
        0.2105263158    0.4210526316    0.2105263158    1.0
        0.2039473684    0.4078947368    0.2039473684    1.0
        0.1973684211    0.3947368421    0.1973684211    1.0
        0.1907894737    0.3815789474    0.1907894737    1.0
        0.1842105263    0.3684210526    0.1842105263    1.0
        0.1776315789    0.3552631579    0.1776315789    1.0
        0.1710526316    0.3421052632    0.1710526316    1.0
        0.1644736842    0.3289473684    0.1644736842    1.0
        0.1578947368    0.3157894737    0.1578947368    1.0
        0.1513157895    0.3026315789    0.1513157895    1.0
        0.1447368421    0.2894736842    0.1447368421    1.0
        0.1381578947    0.2763157895    0.1381578947    1.0
        0.1315789474    0.2631578947    0.1315789474    1.0
        0.1250000000    0.2500000000    0.1250000000    1.0
        0.1184210526    0.2368421053    0.1184210526    1.0
        0.1118421053    0.2236842105    0.1118421053    1.0
        0.1052631579    0.2105263158    0.1052631579    1.0
        0.0986842105    0.1973684211    0.0986842105    1.0
        0.0921052632    0.1842105263    0.0921052632    1.0
        0.0855263158    0.1710526316    0.0855263158    1.0
        0.0789473684    0.1578947368    0.0789473684    1.0
        0.0723684211    0.1447368421    0.0723684211    1.0
        0.0657894737    0.1315789474    0.0657894737    1.0
        0.0592105263    0.1184210526    0.0592105263    1.0
        0.0526315789    0.1052631579    0.0526315789    1.0
        0.0460526316    0.0921052632    0.0460526316    1.0
        0.0394736842    0.0789473684    0.0394736842    1.0
        0.0328947368    0.0657894737    0.0328947368    1.0
        0.0263157895    0.0526315789    0.0263157895    1.0
        0.0197368421    0.0394736842    0.0197368421    1.0
        0.0131578947    0.0263157895    0.0131578947    1.0
        0.0065789474    0.0131578947    0.0065789474    1.0
        0.0000000000    0.0000000000    0.0000000000    1.0
