&PROJWFC

  ! The same prefix as in si_scf.in
  prefix = 'silicon'

  ! The same output directory as in si_scf.in
  outdir = './out'

  ! Arbitrary output file name
  ! Use pdos directory not to overcrowd the current directory
  filpdos = './pdos/Si.pdos.dat'

  ! Energy resolution (in eV)
  deltaE = 0.1
/
